(declare-fun cmp225.not.i.i_46_101 () (_ BitVec 1))
(declare-fun narrow_46_103 () (_ BitVec 1))
(declare-fun cmp221.i.i_46_100 () (_ BitVec 1))
(declare-fun i146.i.i_46_99 () (_ BitVec 32))
(declare-fun i136.i.i_46_96 () (_ BitVec 32))
(declare-fun i144.i.i_46_98 () (_ BitVec 32))
(declare-fun i138.i.i_46_97 () (_ BitVec 32))
(declare-fun src_reg_46_27 () (_ BitVec 32))
(declare-fun src_reg_46_26 () (_ BitVec 32))
(declare-fun dst_reg_46_9 () (_ BitVec 32))
(declare-fun dst_reg_46_8 () (_ BitVec 32))
(declare-fun i30.i32_46_95 () (_ BitVec 32))
(declare-fun src_reg_46_29 () (_ BitVec 32))
(declare-fun i29.i29_46_94 () (_ BitVec 32))
(declare-fun src_reg_46_28 () (_ BitVec 32))
(declare-fun i28.i26_46_93 () (_ BitVec 32))
(declare-fun i27.i23_46_92 () (_ BitVec 32))
(declare-fun i26.i20_46_91 () (_ BitVec 64))
(declare-fun src_reg_46_25 () (_ BitVec 64))
(declare-fun i25.i17_46_90 () (_ BitVec 64))
(declare-fun src_reg_46_24 () (_ BitVec 64))
(declare-fun i24.i14_46_89 () (_ BitVec 64))
(declare-fun src_reg_46_23 () (_ BitVec 64))
(declare-fun i23.i11_46_88 () (_ BitVec 64))
(declare-fun src_reg_46_22 () (_ BitVec 64))
(declare-fun i22.i8_46_87 () (_ BitVec 64))
(declare-fun src_reg_46_21 () (_ BitVec 64))
(declare-fun i21.i5_46_86 () (_ BitVec 64))
(declare-fun src_reg_46_20 () (_ BitVec 64))
(declare-fun i.i2_46_85 () (_ BitVec 32))
(declare-fun i30.i_46_84 () (_ BitVec 32))
(declare-fun dst_reg_46_11 () (_ BitVec 32))
(declare-fun i29.i_46_83 () (_ BitVec 32))
(declare-fun dst_reg_46_10 () (_ BitVec 32))
(declare-fun i28.i_46_82 () (_ BitVec 32))
(declare-fun i27.i_46_81 () (_ BitVec 32))
(declare-fun i26.i_46_80 () (_ BitVec 64))
(declare-fun dst_reg_46_7 () (_ BitVec 64))
(declare-fun i25.i_46_79 () (_ BitVec 64))
(declare-fun dst_reg_46_6 () (_ BitVec 64))
(declare-fun i24.i_46_78 () (_ BitVec 64))
(declare-fun dst_reg_46_5 () (_ BitVec 64))
(declare-fun i23.i_46_77 () (_ BitVec 64))
(declare-fun dst_reg_46_4 () (_ BitVec 64))
(declare-fun i22.i_46_76 () (_ BitVec 64))
(declare-fun dst_reg_46_3 () (_ BitVec 64))
(declare-fun i21.i_46_75 () (_ BitVec 64))
(declare-fun dst_reg_46_2 () (_ BitVec 64))
(declare-fun i.i_46_74 () (_ BitVec 32))
(declare-fun other_branch_src_reg_46_71 () (_ BitVec 8))
(declare-fun other_branch_src_reg_46_70 () (_ BitVec 32))
(declare-fun other_branch_src_reg_46_69 () (_ BitVec 32))
(declare-fun other_branch_src_reg_46_68 () (_ BitVec 32))
(declare-fun other_branch_src_reg_46_67 () (_ BitVec 32))
(declare-fun other_branch_src_reg_46_66 () (_ BitVec 32))
(declare-fun other_branch_src_reg_46_65 () (_ BitVec 32))
(declare-fun other_branch_src_reg_46_64 () (_ BitVec 32))
(declare-fun other_branch_src_reg_46_63 () (_ BitVec 32))
(declare-fun other_branch_src_reg_46_62 () (_ BitVec 32))
(declare-fun other_branch_src_reg_46_61 () (_ BitVec 64))
(declare-fun other_branch_src_reg_46_60 () (_ BitVec 64))
(declare-fun other_branch_src_reg_46_59 () (_ BitVec 64))
(declare-fun other_branch_src_reg_46_58 () (_ BitVec 64))
(declare-fun other_branch_src_reg_46_57 () (_ BitVec 64))
(declare-fun other_branch_src_reg_46_56 () (_ BitVec 64))
(declare-fun other_branch_src_reg_46_55 () (_ BitVec 32))
(declare-fun other_branch_src_reg_46_54 () (_ BitVec 32))
(declare-fun other_branch_dst_reg_46_53 () (_ BitVec 8))
(declare-fun other_branch_dst_reg_46_52 () (_ BitVec 32))
(declare-fun other_branch_dst_reg_46_51 () (_ BitVec 32))
(declare-fun other_branch_dst_reg_46_50 () (_ BitVec 32))
(declare-fun other_branch_dst_reg_46_49 () (_ BitVec 32))
(declare-fun other_branch_dst_reg_46_48 () (_ BitVec 32))
(declare-fun other_branch_dst_reg_46_47 () (_ BitVec 32))
(declare-fun other_branch_dst_reg_46_46 () (_ BitVec 32))
(declare-fun other_branch_dst_reg_46_45 () (_ BitVec 32))
(declare-fun other_branch_dst_reg_46_44 () (_ BitVec 32))
(declare-fun other_branch_dst_reg_46_43 () (_ BitVec 64))
(declare-fun other_branch_dst_reg_46_42 () (_ BitVec 64))
(declare-fun other_branch_dst_reg_46_41 () (_ BitVec 64))
(declare-fun other_branch_dst_reg_46_40 () (_ BitVec 64))
(declare-fun other_branch_dst_reg_46_39 () (_ BitVec 64))
(declare-fun other_branch_dst_reg_46_38 () (_ BitVec 64))
(declare-fun other_branch_dst_reg_46_37 () (_ BitVec 32))
(declare-fun other_branch_dst_reg_46_36 () (_ BitVec 32))
(declare-fun src_reg_46_35 () (_ BitVec 8))
(declare-fun src_reg_46_34 () (_ BitVec 32))
(declare-fun src_reg_46_33 () (_ BitVec 32))
(declare-fun src_reg_46_32 () (_ BitVec 32))
(declare-fun src_reg_46_31 () (_ BitVec 32))
(declare-fun src_reg_46_30 () (_ BitVec 32))
(declare-fun src_reg_46_19 () (_ BitVec 32))
(declare-fun src_reg_46_18 () (_ BitVec 32))
(declare-fun dst_reg_46_17 () (_ BitVec 8))
(declare-fun dst_reg_46_16 () (_ BitVec 32))
(declare-fun dst_reg_46_15 () (_ BitVec 32))
(declare-fun dst_reg_46_14 () (_ BitVec 32))
(declare-fun dst_reg_46_13 () (_ BitVec 32))
(declare-fun dst_reg_46_12 () (_ BitVec 32))
(declare-fun dst_reg_46_1 () (_ BitVec 32))
(declare-fun dst_reg_46_0 () (_ BitVec 32))
(declare-fun cmp.not.i_46_106 () (_ BitVec 1))
(declare-fun i.i35_46_104 () (_ BitVec 32))
(declare-fun cmp2.not.i_46_109 () (_ BitVec 1))
(declare-fun i1.i_46_107 () (_ BitVec 32))
(declare-fun i373.i567.i_46_124 () (_ BitVec 32))
(declare-fun cond418.i569.i_46_126 () (_ BitVec 32))
(declare-fun add410.i565.i_46_123 () (_ BitVec 32))
(declare-fun cmp413.i568.i_46_125 () (_ BitVec 1))
(declare-fun i372.i564.i_46_121 () (_ BitVec 32))
(declare-fun sub400.i560.i_46_118 () (_ BitVec 32))
(declare-fun cond407.i562.i_46_120 () (_ BitVec 32))
(declare-fun i370.i557.i_46_115 () (_ BitVec 32))
(declare-fun cmp402.i561.i_46_119 () (_ BitVec 1))
(declare-fun i371.i559.i_46_116 () (_ BitVec 32))
(declare-fun i365.i.i_46_112 () (_ BitVec 32))
(declare-fun cond371.i.i_46_114 () (_ BitVec 32))
(declare-fun cmp366.i.i_46_113 () (_ BitVec 1))
(declare-fun cond361.i.i_46_111 () (_ BitVec 32))
(declare-fun cmp356.i.i_46_110 () (_ BitVec 1))
(declare-fun other_branch_src_reg_46_270 () (_ BitVec 8))
(declare-fun other_branch_src_reg_46_198 () (_ BitVec 8))
(declare-fun other_branch_src_reg_46_269 () (_ BitVec 32))
(declare-fun other_branch_src_reg_46_197 () (_ BitVec 32))
(declare-fun other_branch_src_reg_46_268 () (_ BitVec 32))
(declare-fun other_branch_src_reg_46_196 () (_ BitVec 32))
(declare-fun other_branch_src_reg_46_267 () (_ BitVec 32))
(declare-fun other_branch_src_reg_46_195 () (_ BitVec 32))
(declare-fun other_branch_src_reg_46_266 () (_ BitVec 32))
(declare-fun other_branch_src_reg_46_194 () (_ BitVec 32))
(declare-fun other_branch_src_reg_46_265 () (_ BitVec 32))
(declare-fun other_branch_src_reg_46_193 () (_ BitVec 32))
(declare-fun other_branch_src_reg_46_264 () (_ BitVec 32))
(declare-fun other_branch_src_reg_46_192 () (_ BitVec 32))
(declare-fun other_branch_src_reg_46_263 () (_ BitVec 32))
(declare-fun other_branch_src_reg_46_191 () (_ BitVec 32))
(declare-fun other_branch_src_reg_46_262 () (_ BitVec 32))
(declare-fun other_branch_src_reg_46_190 () (_ BitVec 32))
(declare-fun other_branch_src_reg_46_261 () (_ BitVec 32))
(declare-fun other_branch_src_reg_46_189 () (_ BitVec 32))
(declare-fun other_branch_src_reg_46_260 () (_ BitVec 64))
(declare-fun other_branch_src_reg_46_188 () (_ BitVec 64))
(declare-fun other_branch_src_reg_46_259 () (_ BitVec 64))
(declare-fun other_branch_src_reg_46_187 () (_ BitVec 64))
(declare-fun other_branch_src_reg_46_258 () (_ BitVec 64))
(declare-fun other_branch_src_reg_46_186 () (_ BitVec 64))
(declare-fun other_branch_src_reg_46_257 () (_ BitVec 64))
(declare-fun other_branch_src_reg_46_185 () (_ BitVec 64))
(declare-fun other_branch_src_reg_46_256 () (_ BitVec 64))
(declare-fun other_branch_src_reg_46_184 () (_ BitVec 64))
(declare-fun other_branch_src_reg_46_255 () (_ BitVec 64))
(declare-fun other_branch_src_reg_46_183 () (_ BitVec 64))
(declare-fun other_branch_src_reg_46_254 () (_ BitVec 32))
(declare-fun other_branch_src_reg_46_182 () (_ BitVec 32))
(declare-fun other_branch_src_reg_46_253 () (_ BitVec 32))
(declare-fun other_branch_src_reg_46_181 () (_ BitVec 32))
(declare-fun other_branch_dst_reg_46_252 () (_ BitVec 8))
(declare-fun other_branch_dst_reg_46_180 () (_ BitVec 8))
(declare-fun other_branch_dst_reg_46_251 () (_ BitVec 32))
(declare-fun other_branch_dst_reg_46_179 () (_ BitVec 32))
(declare-fun other_branch_dst_reg_46_250 () (_ BitVec 32))
(declare-fun other_branch_dst_reg_46_178 () (_ BitVec 32))
(declare-fun other_branch_dst_reg_46_249 () (_ BitVec 32))
(declare-fun other_branch_dst_reg_46_177 () (_ BitVec 32))
(declare-fun other_branch_dst_reg_46_248 () (_ BitVec 32))
(declare-fun other_branch_dst_reg_46_176 () (_ BitVec 32))
(declare-fun other_branch_dst_reg_46_247 () (_ BitVec 32))
(declare-fun other_branch_dst_reg_46_175 () (_ BitVec 32))
(declare-fun other_branch_dst_reg_46_246 () (_ BitVec 32))
(declare-fun other_branch_dst_reg_46_174 () (_ BitVec 32))
(declare-fun other_branch_dst_reg_46_245 () (_ BitVec 32))
(declare-fun other_branch_dst_reg_46_173 () (_ BitVec 32))
(declare-fun other_branch_dst_reg_46_244 () (_ BitVec 32))
(declare-fun other_branch_dst_reg_46_172 () (_ BitVec 32))
(declare-fun other_branch_dst_reg_46_243 () (_ BitVec 32))
(declare-fun other_branch_dst_reg_46_171 () (_ BitVec 32))
(declare-fun other_branch_dst_reg_46_242 () (_ BitVec 64))
(declare-fun other_branch_dst_reg_46_170 () (_ BitVec 64))
(declare-fun other_branch_dst_reg_46_241 () (_ BitVec 64))
(declare-fun other_branch_dst_reg_46_169 () (_ BitVec 64))
(declare-fun other_branch_dst_reg_46_240 () (_ BitVec 64))
(declare-fun other_branch_dst_reg_46_168 () (_ BitVec 64))
(declare-fun other_branch_dst_reg_46_239 () (_ BitVec 64))
(declare-fun other_branch_dst_reg_46_167 () (_ BitVec 64))
(declare-fun other_branch_dst_reg_46_238 () (_ BitVec 64))
(declare-fun other_branch_dst_reg_46_166 () (_ BitVec 64))
(declare-fun other_branch_dst_reg_46_237 () (_ BitVec 64))
(declare-fun other_branch_dst_reg_46_165 () (_ BitVec 64))
(declare-fun other_branch_dst_reg_46_236 () (_ BitVec 32))
(declare-fun other_branch_dst_reg_46_164 () (_ BitVec 32))
(declare-fun other_branch_dst_reg_46_235 () (_ BitVec 32))
(declare-fun other_branch_dst_reg_46_163 () (_ BitVec 32))
(declare-fun src_reg_46_234 () (_ BitVec 8))
(declare-fun src_reg_46_162 () (_ BitVec 8))
(declare-fun src_reg_46_233 () (_ BitVec 32))
(declare-fun src_reg_46_161 () (_ BitVec 32))
(declare-fun src_reg_46_232 () (_ BitVec 32))
(declare-fun src_reg_46_160 () (_ BitVec 32))
(declare-fun src_reg_46_231 () (_ BitVec 32))
(declare-fun src_reg_46_159 () (_ BitVec 32))
(declare-fun src_reg_46_230 () (_ BitVec 32))
(declare-fun src_reg_46_158 () (_ BitVec 32))
(declare-fun src_reg_46_229 () (_ BitVec 32))
(declare-fun src_reg_46_157 () (_ BitVec 32))
(declare-fun src_reg_46_228 () (_ BitVec 32))
(declare-fun src_reg_46_156 () (_ BitVec 32))
(declare-fun src_reg_46_227 () (_ BitVec 32))
(declare-fun src_reg_46_155 () (_ BitVec 32))
(declare-fun src_reg_46_226 () (_ BitVec 32))
(declare-fun src_reg_46_154 () (_ BitVec 32))
(declare-fun src_reg_46_225 () (_ BitVec 32))
(declare-fun src_reg_46_153 () (_ BitVec 32))
(declare-fun src_reg_46_224 () (_ BitVec 64))
(declare-fun src_reg_46_152 () (_ BitVec 64))
(declare-fun src_reg_46_223 () (_ BitVec 64))
(declare-fun src_reg_46_151 () (_ BitVec 64))
(declare-fun src_reg_46_222 () (_ BitVec 64))
(declare-fun src_reg_46_150 () (_ BitVec 64))
(declare-fun src_reg_46_221 () (_ BitVec 64))
(declare-fun src_reg_46_149 () (_ BitVec 64))
(declare-fun src_reg_46_220 () (_ BitVec 64))
(declare-fun src_reg_46_148 () (_ BitVec 64))
(declare-fun src_reg_46_219 () (_ BitVec 64))
(declare-fun src_reg_46_147 () (_ BitVec 64))
(declare-fun src_reg_46_218 () (_ BitVec 32))
(declare-fun src_reg_46_146 () (_ BitVec 32))
(declare-fun src_reg_46_217 () (_ BitVec 32))
(declare-fun src_reg_46_145 () (_ BitVec 32))
(declare-fun dst_reg_46_216 () (_ BitVec 8))
(declare-fun dst_reg_46_144 () (_ BitVec 8))
(declare-fun dst_reg_46_215 () (_ BitVec 32))
(declare-fun dst_reg_46_143 () (_ BitVec 32))
(declare-fun dst_reg_46_214 () (_ BitVec 32))
(declare-fun dst_reg_46_142 () (_ BitVec 32))
(declare-fun dst_reg_46_213 () (_ BitVec 32))
(declare-fun dst_reg_46_141 () (_ BitVec 32))
(declare-fun dst_reg_46_212 () (_ BitVec 32))
(declare-fun dst_reg_46_140 () (_ BitVec 32))
(declare-fun dst_reg_46_211 () (_ BitVec 32))
(declare-fun dst_reg_46_139 () (_ BitVec 32))
(declare-fun dst_reg_46_210 () (_ BitVec 32))
(declare-fun dst_reg_46_138 () (_ BitVec 32))
(declare-fun dst_reg_46_209 () (_ BitVec 32))
(declare-fun dst_reg_46_137 () (_ BitVec 32))
(declare-fun dst_reg_46_208 () (_ BitVec 32))
(declare-fun dst_reg_46_136 () (_ BitVec 32))
(declare-fun dst_reg_46_207 () (_ BitVec 32))
(declare-fun dst_reg_46_135 () (_ BitVec 32))
(declare-fun dst_reg_46_206 () (_ BitVec 64))
(declare-fun dst_reg_46_134 () (_ BitVec 64))
(declare-fun dst_reg_46_205 () (_ BitVec 64))
(declare-fun dst_reg_46_133 () (_ BitVec 64))
(declare-fun dst_reg_46_204 () (_ BitVec 64))
(declare-fun dst_reg_46_132 () (_ BitVec 64))
(declare-fun dst_reg_46_203 () (_ BitVec 64))
(declare-fun dst_reg_46_131 () (_ BitVec 64))
(declare-fun dst_reg_46_202 () (_ BitVec 64))
(declare-fun dst_reg_46_130 () (_ BitVec 64))
(declare-fun dst_reg_46_201 () (_ BitVec 64))
(declare-fun dst_reg_46_129 () (_ BitVec 64))
(declare-fun dst_reg_46_200 () (_ BitVec 32))
(declare-fun dst_reg_46_128 () (_ BitVec 32))
(declare-fun dst_reg_46_199 () (_ BitVec 32))
(declare-fun dst_reg_46_127 () (_ BitVec 32))
(assert (let ((a!1 (and (= cmp2.not.i_46_109 #b1)
                (and (= cmp.not.i_46_106 #b1) (= narrow_46_103 #b0))))
      (a!2 (and (= cmp2.not.i_46_109 #b0)
                (and (= cmp.not.i_46_106 #b1) (= narrow_46_103 #b0))))
      (a!3 (and (= i.i2_46_85 other_branch_src_reg_46_181)
                (= other_branch_src_reg_46_55 other_branch_src_reg_46_182)
                (= i21.i5_46_86 other_branch_src_reg_46_183)
                (= i22.i8_46_87 other_branch_src_reg_46_184)
                (= i23.i11_46_88 other_branch_src_reg_46_185)
                (= i24.i14_46_89 other_branch_src_reg_46_186)
                (= i25.i17_46_90 other_branch_src_reg_46_187)
                (= i26.i20_46_91 other_branch_src_reg_46_188)
                (= i27.i23_46_92 other_branch_src_reg_46_189)
                (= i28.i26_46_93 other_branch_src_reg_46_190)
                (= i29.i29_46_94 other_branch_src_reg_46_191)
                (= i30.i32_46_95 other_branch_src_reg_46_192)
                (= other_branch_src_reg_46_66 other_branch_src_reg_46_193)
                (= other_branch_src_reg_46_67 other_branch_src_reg_46_194)
                (= other_branch_src_reg_46_68 other_branch_src_reg_46_195)
                (= other_branch_src_reg_46_69 other_branch_src_reg_46_196)
                (= other_branch_src_reg_46_70 other_branch_src_reg_46_197)
                (= other_branch_src_reg_46_71 other_branch_src_reg_46_198)
                (= i.i_46_74 other_branch_dst_reg_46_163)
                (= other_branch_dst_reg_46_37 other_branch_dst_reg_46_164)
                (= i21.i_46_75 other_branch_dst_reg_46_165)
                (= i22.i_46_76 other_branch_dst_reg_46_166)
                (= i23.i_46_77 other_branch_dst_reg_46_167)
                (= i24.i_46_78 other_branch_dst_reg_46_168)
                (= i25.i_46_79 other_branch_dst_reg_46_169)
                (= i26.i_46_80 other_branch_dst_reg_46_170)
                (= i27.i_46_81 other_branch_dst_reg_46_171)
                (= i28.i_46_82 other_branch_dst_reg_46_172)
                (= i29.i_46_83 other_branch_dst_reg_46_173)
                (= i30.i_46_84 other_branch_dst_reg_46_174)
                (= other_branch_dst_reg_46_48 other_branch_dst_reg_46_175)
                (= other_branch_dst_reg_46_49 other_branch_dst_reg_46_176)
                (= other_branch_dst_reg_46_50 other_branch_dst_reg_46_177)
                (= other_branch_dst_reg_46_51 other_branch_dst_reg_46_178)
                (= other_branch_dst_reg_46_52 other_branch_dst_reg_46_179)
                (= other_branch_dst_reg_46_53 other_branch_dst_reg_46_180)
                (= #x00000001 src_reg_46_145)
                (= src_reg_46_19 src_reg_46_146)
                (= src_reg_46_20 src_reg_46_147)
                (= src_reg_46_21 src_reg_46_148)
                (= src_reg_46_22 src_reg_46_149)
                (= src_reg_46_23 src_reg_46_150)
                (= src_reg_46_24 src_reg_46_151)
                (= src_reg_46_25 src_reg_46_152)
                (= src_reg_46_26 src_reg_46_153)
                (= src_reg_46_27 src_reg_46_154)
                (= src_reg_46_28 src_reg_46_155)
                (= src_reg_46_29 src_reg_46_156)
                (= src_reg_46_30 src_reg_46_157)
                (= src_reg_46_31 src_reg_46_158)
                (= src_reg_46_32 src_reg_46_159)
                (= src_reg_46_33 src_reg_46_160)
                (= src_reg_46_34 src_reg_46_161)
                (= src_reg_46_35 src_reg_46_162)
                (= #x00000001 dst_reg_46_127)
                (= dst_reg_46_1 dst_reg_46_128)
                (= dst_reg_46_2 dst_reg_46_129)
                (= dst_reg_46_3 dst_reg_46_130)
                (= dst_reg_46_4 dst_reg_46_131)
                (= dst_reg_46_5 dst_reg_46_132)
                (= dst_reg_46_6 dst_reg_46_133)
                (= dst_reg_46_7 dst_reg_46_134)
                (= dst_reg_46_8 dst_reg_46_135)
                (= dst_reg_46_9 dst_reg_46_136)
                (= dst_reg_46_10 dst_reg_46_137)
                (= dst_reg_46_11 dst_reg_46_138)
                (= dst_reg_46_12 dst_reg_46_139)
                (= dst_reg_46_13 dst_reg_46_140)
                (= dst_reg_46_14 dst_reg_46_141)
                (= dst_reg_46_15 dst_reg_46_142)
                (= dst_reg_46_16 dst_reg_46_143)
                (= dst_reg_46_17 dst_reg_46_144)))
      (a!7 (=> (and (= cmp.not.i_46_106 #b1) (= narrow_46_103 #b0))
               (and (= #x00000001 i1.i_46_107)
                    (ite (= i1.i_46_107 #x00000001)
                         (= cmp2.not.i_46_109 #b1)
                         (= cmp2.not.i_46_109 #b0)))))
      (a!8 (=> (= narrow_46_103 #b0)
               (and (= #x00000001 i.i35_46_104)
                    (ite (= i.i35_46_104 #x00000001)
                         (= cmp.not.i_46_106 #b1)
                         (= cmp.not.i_46_106 #b0))))))
(let ((a!4 (and (=> (= narrow_46_103 #b1) a!3)
                (=> (and (= cmp.not.i_46_106 #b0) (= narrow_46_103 #b0)) a!3)
                (=> a!2 a!3)
                (=> a!1
                    (and (= i.i2_46_85 other_branch_src_reg_46_181)
                         (= other_branch_src_reg_46_55
                            other_branch_src_reg_46_182)
                         (= i21.i5_46_86 other_branch_src_reg_46_183)
                         (= i22.i8_46_87 other_branch_src_reg_46_184)
                         (= i23.i11_46_88 other_branch_src_reg_46_185)
                         (= i24.i14_46_89 other_branch_src_reg_46_186)
                         (= i25.i17_46_90 other_branch_src_reg_46_187)
                         (= i26.i20_46_91 other_branch_src_reg_46_188)
                         (= cond418.i569.i_46_126 other_branch_src_reg_46_189)
                         (= i28.i26_46_93 other_branch_src_reg_46_190)
                         (= i29.i29_46_94 other_branch_src_reg_46_191)
                         (= i30.i32_46_95 other_branch_src_reg_46_192)
                         (= other_branch_src_reg_46_66
                            other_branch_src_reg_46_193)
                         (= other_branch_src_reg_46_67
                            other_branch_src_reg_46_194)
                         (= other_branch_src_reg_46_68
                            other_branch_src_reg_46_195)
                         (= other_branch_src_reg_46_69
                            other_branch_src_reg_46_196)
                         (= other_branch_src_reg_46_70
                            other_branch_src_reg_46_197)
                         (= other_branch_src_reg_46_71
                            other_branch_src_reg_46_198)
                         (= i.i_46_74 other_branch_dst_reg_46_163)
                         (= other_branch_dst_reg_46_37
                            other_branch_dst_reg_46_164)
                         (= i21.i_46_75 other_branch_dst_reg_46_165)
                         (= i22.i_46_76 other_branch_dst_reg_46_166)
                         (= i23.i_46_77 other_branch_dst_reg_46_167)
                         (= i24.i_46_78 other_branch_dst_reg_46_168)
                         (= i25.i_46_79 other_branch_dst_reg_46_169)
                         (= i26.i_46_80 other_branch_dst_reg_46_170)
                         (= i27.i_46_81 other_branch_dst_reg_46_171)
                         (= cond407.i562.i_46_120 other_branch_dst_reg_46_172)
                         (= i29.i_46_83 other_branch_dst_reg_46_173)
                         (= i30.i_46_84 other_branch_dst_reg_46_174)
                         (= other_branch_dst_reg_46_48
                            other_branch_dst_reg_46_175)
                         (= other_branch_dst_reg_46_49
                            other_branch_dst_reg_46_176)
                         (= other_branch_dst_reg_46_50
                            other_branch_dst_reg_46_177)
                         (= other_branch_dst_reg_46_51
                            other_branch_dst_reg_46_178)
                         (= other_branch_dst_reg_46_52
                            other_branch_dst_reg_46_179)
                         (= other_branch_dst_reg_46_53
                            other_branch_dst_reg_46_180)
                         (= #x00000001 src_reg_46_145)
                         (= src_reg_46_19 src_reg_46_146)
                         (= src_reg_46_20 src_reg_46_147)
                         (= src_reg_46_21 src_reg_46_148)
                         (= src_reg_46_22 src_reg_46_149)
                         (= src_reg_46_23 src_reg_46_150)
                         (= src_reg_46_24 src_reg_46_151)
                         (= src_reg_46_25 src_reg_46_152)
                         (= src_reg_46_26 src_reg_46_153)
                         (= cond361.i.i_46_111 src_reg_46_154)
                         (= src_reg_46_28 src_reg_46_155)
                         (= src_reg_46_29 src_reg_46_156)
                         (= src_reg_46_30 src_reg_46_157)
                         (= src_reg_46_31 src_reg_46_158)
                         (= src_reg_46_32 src_reg_46_159)
                         (= src_reg_46_33 src_reg_46_160)
                         (= src_reg_46_34 src_reg_46_161)
                         (= src_reg_46_35 src_reg_46_162)
                         (= #x00000001 dst_reg_46_127)
                         (= dst_reg_46_1 dst_reg_46_128)
                         (= dst_reg_46_2 dst_reg_46_129)
                         (= dst_reg_46_3 dst_reg_46_130)
                         (= dst_reg_46_4 dst_reg_46_131)
                         (= dst_reg_46_5 dst_reg_46_132)
                         (= dst_reg_46_6 dst_reg_46_133)
                         (= dst_reg_46_7 dst_reg_46_134)
                         (= cond371.i.i_46_114 dst_reg_46_135)
                         (= dst_reg_46_9 dst_reg_46_136)
                         (= dst_reg_46_10 dst_reg_46_137)
                         (= dst_reg_46_11 dst_reg_46_138)
                         (= dst_reg_46_12 dst_reg_46_139)
                         (= dst_reg_46_13 dst_reg_46_140)
                         (= dst_reg_46_14 dst_reg_46_141)
                         (= dst_reg_46_15 dst_reg_46_142)
                         (= dst_reg_46_16 dst_reg_46_143)
                         (= dst_reg_46_17 dst_reg_46_144)))
                (= dst_reg_46_127 dst_reg_46_199)
                (= dst_reg_46_128 dst_reg_46_200)
                (= dst_reg_46_129 dst_reg_46_201)
                (= dst_reg_46_130 dst_reg_46_202)
                (= dst_reg_46_131 dst_reg_46_203)
                (= dst_reg_46_132 dst_reg_46_204)
                (= dst_reg_46_133 dst_reg_46_205)
                (= dst_reg_46_134 dst_reg_46_206)
                (= dst_reg_46_135 dst_reg_46_207)
                (= dst_reg_46_136 dst_reg_46_208)
                (= dst_reg_46_137 dst_reg_46_209)
                (= dst_reg_46_138 dst_reg_46_210)
                (= dst_reg_46_139 dst_reg_46_211)
                (= dst_reg_46_140 dst_reg_46_212)
                (= dst_reg_46_141 dst_reg_46_213)
                (= dst_reg_46_142 dst_reg_46_214)
                (= dst_reg_46_143 dst_reg_46_215)
                (= dst_reg_46_144 dst_reg_46_216)
                (= src_reg_46_145 src_reg_46_217)
                (= src_reg_46_146 src_reg_46_218)
                (= src_reg_46_147 src_reg_46_219)
                (= src_reg_46_148 src_reg_46_220)
                (= src_reg_46_149 src_reg_46_221)
                (= src_reg_46_150 src_reg_46_222)
                (= src_reg_46_151 src_reg_46_223)
                (= src_reg_46_152 src_reg_46_224)
                (= src_reg_46_153 src_reg_46_225)
                (= src_reg_46_154 src_reg_46_226)
                (= src_reg_46_155 src_reg_46_227)
                (= src_reg_46_156 src_reg_46_228)
                (= src_reg_46_157 src_reg_46_229)
                (= src_reg_46_158 src_reg_46_230)
                (= src_reg_46_159 src_reg_46_231)
                (= src_reg_46_160 src_reg_46_232)
                (= src_reg_46_161 src_reg_46_233)
                (= src_reg_46_162 src_reg_46_234)
                (= other_branch_dst_reg_46_163 other_branch_dst_reg_46_235)
                (= other_branch_dst_reg_46_164 other_branch_dst_reg_46_236)
                (= other_branch_dst_reg_46_165 other_branch_dst_reg_46_237)
                (= other_branch_dst_reg_46_166 other_branch_dst_reg_46_238)
                (= other_branch_dst_reg_46_167 other_branch_dst_reg_46_239)
                (= other_branch_dst_reg_46_168 other_branch_dst_reg_46_240)
                (= other_branch_dst_reg_46_169 other_branch_dst_reg_46_241)
                (= other_branch_dst_reg_46_170 other_branch_dst_reg_46_242)
                (= other_branch_dst_reg_46_171 other_branch_dst_reg_46_243)
                (= other_branch_dst_reg_46_172 other_branch_dst_reg_46_244)
                (= other_branch_dst_reg_46_173 other_branch_dst_reg_46_245)
                (= other_branch_dst_reg_46_174 other_branch_dst_reg_46_246)
                (= other_branch_dst_reg_46_175 other_branch_dst_reg_46_247)
                (= other_branch_dst_reg_46_176 other_branch_dst_reg_46_248)
                (= other_branch_dst_reg_46_177 other_branch_dst_reg_46_249)
                (= other_branch_dst_reg_46_178 other_branch_dst_reg_46_250)
                (= other_branch_dst_reg_46_179 other_branch_dst_reg_46_251)
                (= other_branch_dst_reg_46_180 other_branch_dst_reg_46_252)
                (= other_branch_src_reg_46_181 other_branch_src_reg_46_253)
                (= other_branch_src_reg_46_182 other_branch_src_reg_46_254)
                (= other_branch_src_reg_46_183 other_branch_src_reg_46_255)
                (= other_branch_src_reg_46_184 other_branch_src_reg_46_256)
                (= other_branch_src_reg_46_185 other_branch_src_reg_46_257)
                (= other_branch_src_reg_46_186 other_branch_src_reg_46_258)
                (= other_branch_src_reg_46_187 other_branch_src_reg_46_259)
                (= other_branch_src_reg_46_188 other_branch_src_reg_46_260)
                (= other_branch_src_reg_46_189 other_branch_src_reg_46_261)
                (= other_branch_src_reg_46_190 other_branch_src_reg_46_262)
                (= other_branch_src_reg_46_191 other_branch_src_reg_46_263)
                (= other_branch_src_reg_46_192 other_branch_src_reg_46_264)
                (= other_branch_src_reg_46_193 other_branch_src_reg_46_265)
                (= other_branch_src_reg_46_194 other_branch_src_reg_46_266)
                (= other_branch_src_reg_46_195 other_branch_src_reg_46_267)
                (= other_branch_src_reg_46_196 other_branch_src_reg_46_268)
                (= other_branch_src_reg_46_197 other_branch_src_reg_46_269)
                (= other_branch_src_reg_46_198 other_branch_src_reg_46_270)))
      (a!6 (=> a!1
               (and (ite (bvslt i146.i.i_46_99 i138.i.i_46_97)
                         (= cmp356.i.i_46_110 #b1)
                         (= cmp356.i.i_46_110 #b0))
                    (ite (= cmp356.i.i_46_110 #b1)
                         (= cond361.i.i_46_111 i146.i.i_46_99)
                         (= cond361.i.i_46_111 i138.i.i_46_97))
                    (= dst_reg_46_8 i365.i.i_46_112)
                    (ite (bvsgt i144.i.i_46_98 i365.i.i_46_112)
                         (= cmp366.i.i_46_113 #b1)
                         (= cmp366.i.i_46_113 #b0))
                    (ite (= cmp366.i.i_46_113 #b1)
                         (= cond371.i.i_46_114 i144.i.i_46_98)
                         (= cond371.i.i_46_114 i365.i.i_46_112))
                    (= i28.i_46_82 i370.i557.i_46_115)
                    (= i28.i26_46_93 i371.i559.i_46_116)
                    (= sub400.i560.i_46_118
                       (bvadd i371.i559.i_46_116 #xffffffff))
                    (ite (bvslt i370.i557.i_46_115 sub400.i560.i_46_118)
                         (= cmp402.i561.i_46_119 #b1)
                         (= cmp402.i561.i_46_119 #b0))
                    (ite (= cmp402.i561.i_46_119 #b1)
                         (= cond407.i562.i_46_120 i370.i557.i_46_115)
                         (= cond407.i562.i_46_120 sub400.i560.i_46_118))
                    (= i27.i_46_81 i372.i564.i_46_121)
                    (= add410.i565.i_46_123
                       (bvadd i372.i564.i_46_121 #x00000001))
                    (= i27.i23_46_92 i373.i567.i_46_124)
                    (ite (bvsgt add410.i565.i_46_123 i373.i567.i_46_124)
                         (= cmp413.i568.i_46_125 #b1)
                         (= cmp413.i568.i_46_125 #b0))
                    (ite (= cmp413.i568.i_46_125 #b1)
                         (= cond418.i569.i_46_126 add410.i565.i_46_123)
                         (= cond418.i569.i_46_126 i373.i567.i_46_124))))))
(let ((a!5 (=> (or a!1
                   a!2
                   (and (= cmp.not.i_46_106 #b0) (= narrow_46_103 #b0))
                   (= narrow_46_103 #b1))
               a!4)))
  (and a!5
       a!6
       a!7
       a!8
       (= dst_reg_46_0 dst_reg_46_0)
       (= dst_reg_46_1 dst_reg_46_1)
       (= dst_reg_46_2 dst_reg_46_2)
       (= dst_reg_46_3 dst_reg_46_3)
       (= dst_reg_46_4 dst_reg_46_4)
       (= dst_reg_46_5 dst_reg_46_5)
       (= dst_reg_46_6 dst_reg_46_6)
       (= dst_reg_46_7 dst_reg_46_7)
       (= dst_reg_46_8 dst_reg_46_8)
       (= dst_reg_46_9 dst_reg_46_9)
       (= dst_reg_46_10 dst_reg_46_10)
       (= dst_reg_46_11 dst_reg_46_11)
       (= dst_reg_46_12 dst_reg_46_12)
       (= dst_reg_46_13 dst_reg_46_13)
       (= dst_reg_46_14 dst_reg_46_14)
       (= dst_reg_46_15 dst_reg_46_15)
       (= dst_reg_46_16 dst_reg_46_16)
       (= dst_reg_46_17 dst_reg_46_17)
       (= src_reg_46_18 src_reg_46_18)
       (= src_reg_46_19 src_reg_46_19)
       (= src_reg_46_20 src_reg_46_20)
       (= src_reg_46_21 src_reg_46_21)
       (= src_reg_46_22 src_reg_46_22)
       (= src_reg_46_23 src_reg_46_23)
       (= src_reg_46_24 src_reg_46_24)
       (= src_reg_46_25 src_reg_46_25)
       (= src_reg_46_26 src_reg_46_26)
       (= src_reg_46_27 src_reg_46_27)
       (= src_reg_46_28 src_reg_46_28)
       (= src_reg_46_29 src_reg_46_29)
       (= src_reg_46_30 src_reg_46_30)
       (= src_reg_46_31 src_reg_46_31)
       (= src_reg_46_32 src_reg_46_32)
       (= src_reg_46_33 src_reg_46_33)
       (= src_reg_46_34 src_reg_46_34)
       (= src_reg_46_35 src_reg_46_35)
       (= other_branch_dst_reg_46_36 other_branch_dst_reg_46_36)
       (= other_branch_dst_reg_46_37 other_branch_dst_reg_46_37)
       (= other_branch_dst_reg_46_38 other_branch_dst_reg_46_38)
       (= other_branch_dst_reg_46_39 other_branch_dst_reg_46_39)
       (= other_branch_dst_reg_46_40 other_branch_dst_reg_46_40)
       (= other_branch_dst_reg_46_41 other_branch_dst_reg_46_41)
       (= other_branch_dst_reg_46_42 other_branch_dst_reg_46_42)
       (= other_branch_dst_reg_46_43 other_branch_dst_reg_46_43)
       (= other_branch_dst_reg_46_44 other_branch_dst_reg_46_44)
       (= other_branch_dst_reg_46_45 other_branch_dst_reg_46_45)
       (= other_branch_dst_reg_46_46 other_branch_dst_reg_46_46)
       (= other_branch_dst_reg_46_47 other_branch_dst_reg_46_47)
       (= other_branch_dst_reg_46_48 other_branch_dst_reg_46_48)
       (= other_branch_dst_reg_46_49 other_branch_dst_reg_46_49)
       (= other_branch_dst_reg_46_50 other_branch_dst_reg_46_50)
       (= other_branch_dst_reg_46_51 other_branch_dst_reg_46_51)
       (= other_branch_dst_reg_46_52 other_branch_dst_reg_46_52)
       (= other_branch_dst_reg_46_53 other_branch_dst_reg_46_53)
       (= other_branch_src_reg_46_54 other_branch_src_reg_46_54)
       (= other_branch_src_reg_46_55 other_branch_src_reg_46_55)
       (= other_branch_src_reg_46_56 other_branch_src_reg_46_56)
       (= other_branch_src_reg_46_57 other_branch_src_reg_46_57)
       (= other_branch_src_reg_46_58 other_branch_src_reg_46_58)
       (= other_branch_src_reg_46_59 other_branch_src_reg_46_59)
       (= other_branch_src_reg_46_60 other_branch_src_reg_46_60)
       (= other_branch_src_reg_46_61 other_branch_src_reg_46_61)
       (= other_branch_src_reg_46_62 other_branch_src_reg_46_62)
       (= other_branch_src_reg_46_63 other_branch_src_reg_46_63)
       (= other_branch_src_reg_46_64 other_branch_src_reg_46_64)
       (= other_branch_src_reg_46_65 other_branch_src_reg_46_65)
       (= other_branch_src_reg_46_66 other_branch_src_reg_46_66)
       (= other_branch_src_reg_46_67 other_branch_src_reg_46_67)
       (= other_branch_src_reg_46_68 other_branch_src_reg_46_68)
       (= other_branch_src_reg_46_69 other_branch_src_reg_46_69)
       (= other_branch_src_reg_46_70 other_branch_src_reg_46_70)
       (= other_branch_src_reg_46_71 other_branch_src_reg_46_71)
       (= #x00000001 i.i_46_74)
       (= dst_reg_46_2 i21.i_46_75)
       (= dst_reg_46_3 i22.i_46_76)
       (= dst_reg_46_4 i23.i_46_77)
       (= dst_reg_46_5 i24.i_46_78)
       (= dst_reg_46_6 i25.i_46_79)
       (= dst_reg_46_7 i26.i_46_80)
       (= dst_reg_46_8 i27.i_46_81)
       (= dst_reg_46_9 i28.i_46_82)
       (= dst_reg_46_10 i29.i_46_83)
       (= dst_reg_46_11 i30.i_46_84)
       (= #x00000001 i.i2_46_85)
       (= src_reg_46_20 i21.i5_46_86)
       (= src_reg_46_21 i22.i8_46_87)
       (= src_reg_46_22 i23.i11_46_88)
       (= src_reg_46_23 i24.i14_46_89)
       (= src_reg_46_24 i25.i17_46_90)
       (= src_reg_46_25 i26.i20_46_91)
       (= src_reg_46_26 i27.i23_46_92)
       (= src_reg_46_27 i28.i26_46_93)
       (= src_reg_46_28 i29.i29_46_94)
       (= src_reg_46_29 i30.i32_46_95)
       (= dst_reg_46_8 i136.i.i_46_96)
       (= dst_reg_46_9 i138.i.i_46_97)
       (= src_reg_46_26 i144.i.i_46_98)
       (= src_reg_46_27 i146.i.i_46_99)
       (ite (bvslt i138.i.i_46_97 i144.i.i_46_98)
            (= cmp221.i.i_46_100 #b1)
            (= cmp221.i.i_46_100 #b0))
       (ite (bvsge i136.i.i_46_96 i146.i.i_46_99)
            (= cmp225.not.i.i_46_101 #b1)
            (= cmp225.not.i.i_46_101 #b0))
       (ite (= cmp221.i.i_46_100 #b1)
            (= narrow_46_103 #b1)
            (= narrow_46_103 cmp225.not.i.i_46_101)))))))

;{"dst_reg":["dst_reg_46_0","dst_reg_46_1",[""],["dst_reg_46_2","dst_reg_46_3"],"dst_reg_46_4","dst_reg_46_5","dst_reg_46_6","dst_reg_46_7","dst_reg_46_8","dst_reg_46_9","dst_reg_46_10","dst_reg_46_11","dst_reg_46_12","dst_reg_46_13","","","dst_reg_46_14","dst_reg_46_15","dst_reg_46_16"],"other_branch_dst_reg":["other_branch_dst_reg_46_36","other_branch_dst_reg_46_37",[""],["other_branch_dst_reg_46_38","other_branch_dst_reg_46_39"],"other_branch_dst_reg_46_40","other_branch_dst_reg_46_41","other_branch_dst_reg_46_42","other_branch_dst_reg_46_43","other_branch_dst_reg_46_44","other_branch_dst_reg_46_45","other_branch_dst_reg_46_46","other_branch_dst_reg_46_47","other_branch_dst_reg_46_48","other_branch_dst_reg_46_49","","","other_branch_dst_reg_46_50","other_branch_dst_reg_46_51","other_branch_dst_reg_46_52"],"other_branch_src_reg":["other_branch_src_reg_46_54","other_branch_src_reg_46_55",[""],["other_branch_src_reg_46_56","other_branch_src_reg_46_57"],"other_branch_src_reg_46_58","other_branch_src_reg_46_59","other_branch_src_reg_46_60","other_branch_src_reg_46_61","other_branch_src_reg_46_62","other_branch_src_reg_46_63","other_branch_src_reg_46_64","other_branch_src_reg_46_65","other_branch_src_reg_46_66","other_branch_src_reg_46_67","","","other_branch_src_reg_46_68","other_branch_src_reg_46_69","other_branch_src_reg_46_70"],"src_reg":["src_reg_46_18","src_reg_46_19",[""],["src_reg_46_20","src_reg_46_21"],"src_reg_46_22","src_reg_46_23","src_reg_46_24","src_reg_46_25","src_reg_46_26","src_reg_46_27","src_reg_46_28","src_reg_46_29","src_reg_46_30","src_reg_46_31","","","src_reg_46_32","src_reg_46_33","src_reg_46_34"]}
;{"dst_reg":["dst_reg_46_199","dst_reg_46_200",[""],["dst_reg_46_201","dst_reg_46_202"],"dst_reg_46_203","dst_reg_46_204","dst_reg_46_205","dst_reg_46_206","dst_reg_46_207","dst_reg_46_208","dst_reg_46_209","dst_reg_46_210","dst_reg_46_211","dst_reg_46_212","","","dst_reg_46_213","dst_reg_46_214","dst_reg_46_215"],"other_branch_dst_reg":["other_branch_dst_reg_46_235","other_branch_dst_reg_46_236",[""],["other_branch_dst_reg_46_237","other_branch_dst_reg_46_238"],"other_branch_dst_reg_46_239","other_branch_dst_reg_46_240","other_branch_dst_reg_46_241","other_branch_dst_reg_46_242","other_branch_dst_reg_46_243","other_branch_dst_reg_46_244","other_branch_dst_reg_46_245","other_branch_dst_reg_46_246","other_branch_dst_reg_46_247","other_branch_dst_reg_46_248","","","other_branch_dst_reg_46_249","other_branch_dst_reg_46_250","other_branch_dst_reg_46_251"],"other_branch_src_reg":["other_branch_src_reg_46_253","other_branch_src_reg_46_254",[""],["other_branch_src_reg_46_255","other_branch_src_reg_46_256"],"other_branch_src_reg_46_257","other_branch_src_reg_46_258","other_branch_src_reg_46_259","other_branch_src_reg_46_260","other_branch_src_reg_46_261","other_branch_src_reg_46_262","other_branch_src_reg_46_263","other_branch_src_reg_46_264","other_branch_src_reg_46_265","other_branch_src_reg_46_266","","","other_branch_src_reg_46_267","other_branch_src_reg_46_268","other_branch_src_reg_46_269"],"src_reg":["src_reg_46_217","src_reg_46_218",[""],["src_reg_46_219","src_reg_46_220"],"src_reg_46_221","src_reg_46_222","src_reg_46_223","src_reg_46_224","src_reg_46_225","src_reg_46_226","src_reg_46_227","src_reg_46_228","src_reg_46_229","src_reg_46_230","","","src_reg_46_231","src_reg_46_232","src_reg_46_233"]}
